# ==================================================================================
# Stephanite (Ag5SbS5) unit cell, space group 36, ions relaxed with HSE06
# ==================================================================================
#
# This is the geometry file that corresponds to the current relaxation step.
# If you do not want this file to be written, set the "write_restart_geometry" flag to .false.
#  aims_uuid : 33B471D8-2D49-1503-2280-1BCC11E03768                                
# 
lattice_vector      3.91499996     -6.22499990      0.00000000
lattice_vector      3.91499996      6.22499990      0.00000000
lattice_vector      0.00000000      0.00000000      8.53800011
atom       3.91499809     -1.79804433      7.24868522 Ag
atom       3.91500012      1.79804842      2.97969210 Ag
atom       1.45309296      1.53222135      0.03006929 Ag
atom       6.37690658     -1.53222387      4.29906942 Ag
atom       1.45309251     -1.53222365      4.29906926 Ag
atom       6.37690598      1.53222091      0.03006948 Ag
atom       5.40723984     -0.79956138      1.59563625 Ag
atom       2.42275886      0.79956284      5.86463317 Ag
atom       5.40724057      0.79956153      5.86463437 Ag
atom       2.42275905     -0.79956119      1.59563573 Ag
atom       3.91500012      4.11322981      7.83136785 Sb
atom       3.91500012     -4.11323129      3.56236618 Sb
atom       2.11402158      3.32227433      6.38533569 S
atom       5.71597778     -3.32227496      2.11633484 S
atom       2.11402244     -3.32227504      2.11633493 S
atom       5.71597730      3.32227334      6.38533459 S
atom       3.91499990      0.36590112     -0.06276393 S
atom       3.91499987     -0.36590259      4.20623556 S
atom       3.91500005     -6.04314004      6.92911810 S
atom       3.91499979      6.04313870      2.66011829 S
# 
# What follows is the current estimated Hessian matrix constructed by the BFGS algorithm.
# This is NOT the true Hessian matrix of the system.
# If you do not want this information here, switch it off using the "hessian_to_restart_geometry" keyword.
# 
trust_radius             0.2000000030
hessian_block                1       1           5.258975          -0.000030          -0.000001          -0.000030           4.021859           1.317125          -0.000001           1.317125           2.900418
hessian_block                1       2           0.000000           0.000036          -0.000002           0.000029          -0.155148          -0.183224           0.000000           0.183136           0.073536
hessian_block                1       3          -0.000668          -0.019528           0.005103           0.001814           0.025242           0.066448          -0.000544          -0.073706           0.016795
hessian_block                1       4          -0.000226           0.020586          -0.004938          -0.000019          -0.028165          -0.065299           0.000273          -0.074933           0.016915
hessian_block                1       5          -0.000222          -0.020604           0.004932           0.000023          -0.028135          -0.065276          -0.000253          -0.074901           0.016929
hessian_block                1       6          -0.000672           0.019505          -0.005119          -0.001819           0.025257           0.066456           0.000564          -0.073708           0.016785
hessian_block                1       7          -0.001458           0.042693           0.000243          -0.001667          -0.042654          -0.064138          -0.003539           0.059693           0.029575
hessian_block                1       8          -0.006921          -0.029542          -0.010189           0.013693           0.016530           0.073970          -0.006897           0.074515           0.030349
hessian_block                1       9          -0.006908           0.029581           0.010185          -0.013738           0.016519           0.073995           0.006890           0.074545           0.030360
hessian_block                1      10          -0.001472          -0.042697          -0.000224           0.001712          -0.042643          -0.064118           0.003533           0.059659           0.029571
hessian_block                1      11          -0.002108           0.000015          -0.000016           0.000050          -0.431954          -0.094857          -0.000006          -0.007677           0.028670
hessian_block                1      12           0.000000           0.000040           0.000042          -0.000050           0.433515           0.096987          -0.000006          -0.009389           0.026334
hessian_block                1      13          -1.616873           1.029412           0.712649           0.812325          -0.490201          -0.232731           0.569895          -0.175293          -0.179121
hessian_block                1      14           0.000005          -0.216172          -0.141961          -0.000004           0.073562          -0.058527          -0.000023           0.116017           0.027749
hessian_block                1      15          -0.000012           0.216135           0.141932          -0.000010           0.073563          -0.058525          -0.000010           0.115989           0.027729
hessian_block                1      16          -1.616855          -1.029411          -0.712635          -0.812310          -0.490204          -0.232729          -0.569928          -0.175304          -0.179132
hessian_block                1      17          -0.004554          -0.000005           0.000001           0.000005          -1.347388          -0.727266           0.000008          -0.790969          -0.485269
hessian_block                1      18          -0.000026          -0.000011          -0.000007          -0.000005           0.370281           0.151421           0.000008          -0.188672          -0.151296
hessian_block                1      19          -0.000005           0.000001           0.000007          -0.000067           0.200123           0.001399           0.000017          -0.178077          -0.138520
hessian_block                1      20          -0.000000          -0.000003          -0.000003           0.000067          -0.199960          -0.001107           0.000017          -0.178050          -0.138376
hessian_block                2       2           5.258974          -0.000035          -0.000002          -0.000035           4.021923          -1.316948          -0.000002          -1.316948           2.900450
hessian_block                2       3          -0.000228           0.020694           0.004881          -0.000020          -0.028097           0.065168          -0.000276           0.075050           0.016725
hessian_block                2       4          -0.000666          -0.019493          -0.005024           0.001815           0.025211          -0.066348           0.000541           0.073789           0.016576
hessian_block                2       5          -0.000673           0.019512           0.005017          -0.001818           0.025181          -0.066324          -0.000567           0.073757           0.016590
hessian_block                2       6          -0.000221          -0.020669          -0.004898           0.000022          -0.028112           0.065176           0.000249           0.075052           0.016715
hessian_block                2       7          -0.006917          -0.029553           0.010156           0.013685           0.016630          -0.074002           0.006896          -0.074531           0.030415
hessian_block                2       8          -0.001462           0.042702          -0.000246          -0.001659          -0.042741           0.064106           0.003539          -0.059693           0.029592
hessian_block                2       9          -0.001468          -0.042742           0.000242           0.001720          -0.042731           0.064130          -0.003533          -0.059723           0.029604
hessian_block                2      10          -0.006912           0.029559          -0.010137          -0.013747           0.016619          -0.073981          -0.006890          -0.074497           0.030410
hessian_block                2      11           0.000000          -0.000015          -0.000016          -0.000053           0.433600          -0.097479           0.000007           0.009004           0.026479
hessian_block                2      12          -0.002108          -0.000040           0.000042           0.000054          -0.432075           0.095011           0.000007           0.007866           0.028323
hessian_block                2      13           0.000003          -0.215925           0.141827          -0.000010           0.073785           0.058204           0.000026          -0.115888           0.027841
hessian_block                2      14          -1.616869           1.029483          -0.712700           0.812329          -0.490256           0.232923          -0.569892           0.175076          -0.178864
hessian_block                2      15          -1.616858          -1.029447           0.712673          -0.812305          -0.490257           0.232926           0.569931           0.175104          -0.178885
hessian_block                2      16          -0.000010           0.215924          -0.141813          -0.000015           0.073788           0.058206           0.000013          -0.115876           0.027830
hessian_block                2      17          -0.000026           0.000005           0.000001          -0.000001           0.370186          -0.151550          -0.000010           0.188674          -0.151311
hessian_block                2      18          -0.004554           0.000011          -0.000007           0.000001          -1.347329           0.727343          -0.000010           0.790916          -0.485235
hessian_block                2      19          -0.000000          -0.000001           0.000007           0.000081          -0.200498           0.001831          -0.000015           0.178064          -0.138464
hessian_block                2      20          -0.000005           0.000003          -0.000003          -0.000081           0.200319          -0.001529          -0.000015           0.178029          -0.138326
hessian_block                3       3           3.427232           0.174875           0.610928           0.174875           3.140008           0.971887           0.610928           0.971887           4.098601
hessian_block                3       4          -0.098038          -0.072346          -0.138387          -0.072339          -0.078397          -0.117210           0.138374           0.117176           0.235512
hessian_block                3       5           0.098113           0.072406           0.138349          -0.072395          -0.078443          -0.117144           0.138393           0.117210           0.235443
hessian_block                3       6          -0.290148          -0.072425          -0.138344           0.072392           0.078471           0.117237           0.138291           0.117238           0.235436
hessian_block                3       7          -0.112318          -0.063948          -0.154637           0.101598           0.085201           0.210527          -0.061007          -0.040885          -0.096174
hessian_block                3       8           0.087618           0.080809           0.214199          -0.084810          -0.096898          -0.251346          -0.000899          -0.081224          -0.244462
hessian_block                3       9          -0.112417          -0.064056          -0.154119          -0.101667          -0.085248          -0.210473          -0.061028          -0.040287          -0.096827
hessian_block                3      10           0.096640           0.098314           0.129872           0.135209           0.012787           0.261643          -0.084782           0.010517          -0.132973
hessian_block                3      11          -0.000950          -0.001463           0.000405          -0.180068          -0.153639           0.027697           0.193953           0.036278           0.025706
hessian_block                3      12           0.000434           0.000329           0.000005           0.179413           0.152230          -0.028783           0.194313           0.036571           0.023812
hessian_block                3      13           0.005470           0.072949           0.160664           0.134870           0.041052           0.485519          -0.066594           0.098231          -0.295116
hessian_block                3      14          -0.048301          -0.213470          -0.259691          -0.275349          -0.570788          -0.977765          -0.269239          -0.686820          -1.149026
hessian_block                3      15           0.022014           0.118402           0.109138          -0.180145          -0.168677          -0.339669          -0.118190          -0.047497          -0.126954
hessian_block                3      16          -0.021956          -0.118212          -0.108892           0.180109           0.168596           0.339558          -0.118214          -0.047569          -0.127007
hessian_block                3      17          -0.693191           0.312844           0.000877           0.261666          -0.303026          -0.109897           0.062471          -0.009945           0.104660
hessian_block                3      18           0.000032          -0.000055           0.000015           0.052010           0.159726           0.109529           0.062584          -0.010115           0.106952
hessian_block                3      19          -0.357409          -0.324536          -0.412889          -0.405805          -0.495381          -0.939223          -0.592693          -0.526681          -0.653185
hessian_block                3      20          -0.001931          -0.002211           0.003324           0.079269           0.195278           0.566569          -0.176646          -0.145699          -0.177917
hessian_block                4       4           3.427191           0.174861          -0.610856           0.174861           3.140000          -0.971804          -0.610856          -0.971804           4.098347
hessian_block                4       5          -0.290070          -0.072354           0.138174           0.072350           0.078415          -0.117080          -0.138232          -0.117180           0.235211
hessian_block                4       6           0.098149           0.072456          -0.138431          -0.072430          -0.078492           0.117186          -0.138393          -0.117220           0.235415
hessian_block                4       7           0.087613           0.080806          -0.214189          -0.084730          -0.096851           0.251211           0.000897           0.081211          -0.244469
hessian_block                4       8          -0.112316          -0.063954           0.154657           0.101548           0.085215          -0.210507           0.060990           0.040862          -0.096133
hessian_block                4       9           0.096614           0.098283          -0.129833           0.135135           0.012765          -0.261562           0.084735          -0.010588          -0.132866
hessian_block                4      10          -0.112435          -0.064089           0.154167          -0.101610          -0.085238           0.210399           0.061055           0.040321          -0.096900
hessian_block                4      11           0.000408           0.000285           0.000053           0.179840           0.152749           0.027676          -0.194552          -0.036970           0.024581
hessian_block                4      12          -0.000975          -0.001507          -0.000347          -0.179708          -0.153257          -0.028364          -0.193675          -0.035803           0.025003
hessian_block                4      13          -0.048232          -0.213362           0.259459          -0.275271          -0.570685           0.977493           0.269196           0.686852          -1.148987
hessian_block                4      14           0.005549           0.073110          -0.160805           0.134893           0.041112          -0.485470           0.066556          -0.098339          -0.294963
hessian_block                4      15          -0.022024          -0.118354           0.109014           0.180131           0.168655          -0.339508           0.118179           0.047469          -0.126862
hessian_block                4      16           0.021956           0.118313          -0.108924          -0.180069          -0.168576           0.339399           0.118143           0.047521          -0.126909
hessian_block                4      17           0.000040          -0.000045          -0.000029           0.052010           0.159787          -0.109590          -0.062533           0.010190           0.106885
hessian_block                4      18          -0.693185           0.312856          -0.000890           0.261720          -0.303031           0.109844          -0.062474           0.009935           0.104735
hessian_block                4      19          -0.001936          -0.002218          -0.003311           0.078691           0.194661          -0.565161           0.176846           0.145986          -0.178440
hessian_block                4      20          -0.357413          -0.324543           0.412903          -0.406109          -0.495879           0.939807           0.592466           0.526413          -0.652650
hessian_block                5       5           3.427158          -0.174802           0.610819          -0.174802           3.139904          -0.971739           0.610819          -0.971739           4.098384
hessian_block                5       6          -0.098042           0.072338          -0.138433           0.072317          -0.078351           0.117186           0.138335          -0.117121           0.235521
hessian_block                5       7          -0.112409           0.064058          -0.154100           0.101574          -0.085175           0.210333          -0.061027           0.040277          -0.096861
hessian_block                5       8           0.096612          -0.098289           0.129823          -0.135122           0.012740          -0.261557          -0.084737          -0.010585          -0.132893
hessian_block                5       9          -0.112318           0.063953          -0.154664          -0.101534           0.085183          -0.210498          -0.060967           0.040825          -0.096108
hessian_block                5      10           0.087638          -0.080841           0.214255           0.084738          -0.096855           0.251263          -0.000903           0.081221          -0.244511
hessian_block                5      11           0.000365          -0.000230          -0.000174          -0.179900           0.152820           0.027644           0.194577          -0.036998           0.024590
hessian_block                5      12          -0.000880           0.001364           0.000585           0.179768          -0.153329          -0.028332           0.193701          -0.035831           0.025012
hessian_block                5      13           0.021942          -0.118277           0.108993           0.180000          -0.168463           0.339417          -0.118106           0.047458          -0.126873
hessian_block                5      14          -0.022020           0.118336          -0.109100          -0.180065           0.168543          -0.339528          -0.118138           0.047396          -0.126819
hessian_block                5      15           0.005492          -0.073010           0.160770          -0.134830           0.041004          -0.485501          -0.066554          -0.098349          -0.295016
hessian_block                5      16          -0.048187           0.213281          -0.259442           0.275209          -0.570579           0.977526          -0.269191           0.686834          -1.149033
hessian_block                5      17           0.000037           0.000047           0.000027          -0.052005           0.159757          -0.109614           0.062539           0.010175           0.106867
hessian_block                5      18          -0.693197          -0.312836           0.000864          -0.261724          -0.303002           0.109868           0.062479           0.009920           0.104717
hessian_block                5      19          -0.001920           0.002196           0.003352          -0.078558           0.194438          -0.565175          -0.176839           0.145957          -0.178471
hessian_block                5      20          -0.357420           0.324552          -0.412917           0.405976          -0.495655           0.939820          -0.592460           0.526384          -0.652681
hessian_block                6       6           3.427272          -0.174902          -0.610974          -0.174902           3.140010           0.971874          -0.610974           0.971874           4.098582
hessian_block                6       7           0.096616          -0.098278          -0.129808          -0.135201           0.012744           0.261577           0.084775           0.010549          -0.132935
hessian_block                6       8          -0.112418           0.064057           0.154113           0.101683          -0.085241          -0.210467           0.061050          -0.040302          -0.096854
hessian_block                6       9           0.087623          -0.080804          -0.214210           0.084824          -0.096883          -0.251337           0.000897          -0.081198          -0.244439
hessian_block                6      10          -0.112346           0.063978           0.154707          -0.101636           0.085224           0.210579           0.061034          -0.040907          -0.096217
hessian_block                6      11          -0.000905           0.001408          -0.000527           0.180044          -0.153668           0.027702          -0.193939           0.036268           0.025699
hessian_block                6      12           0.000339          -0.000186           0.000232          -0.179389           0.152261          -0.028787          -0.194300           0.036562           0.023805
hessian_block                6      13          -0.022011           0.118246           0.108924          -0.180173           0.168587           0.339539           0.118220          -0.047534          -0.126958
hessian_block                6      14           0.022079          -0.118455          -0.109188           0.180210          -0.168669          -0.339653           0.118191          -0.047453          -0.126896
hessian_block                6      15          -0.048314           0.213442           0.259621           0.275417          -0.570783          -0.977759           0.269281          -0.686838          -1.149065
hessian_block                6      16           0.005495          -0.072939          -0.160612          -0.134939           0.041049           0.485517           0.066632           0.098219          -0.295148
hessian_block                6      17          -0.693189          -0.312847          -0.000878          -0.261642          -0.303041          -0.109882          -0.062458          -0.009958           0.104670
hessian_block                6      18           0.000045           0.000036          -0.000041          -0.052035           0.159740           0.109514          -0.062572          -0.010129           0.106962
hessian_block                6      19          -0.357425           0.324559           0.412931           0.405924          -0.495356          -0.939200           0.592717          -0.526688          -0.653175
hessian_block                6      20          -0.001924           0.002203          -0.003339          -0.079387           0.195254           0.566546           0.176670          -0.145705          -0.177906
hessian_block                7       7           4.362926          -1.007311           1.425617          -1.007311           3.864791          -1.285298           1.425617          -1.285298           3.767932
hessian_block                7       8          -0.251958           0.125364          -0.152035           0.125362          -0.108729           0.086896           0.152049          -0.086882           0.029706
hessian_block                7       9           0.252109          -0.125405           0.151975           0.125373          -0.108856           0.086916           0.151990          -0.086889           0.029595
hessian_block                7      10          -0.918393           0.124406          -0.150482          -0.124363           0.108537          -0.087132           0.150468          -0.087122           0.029699
hessian_block                7      11          -0.000605           0.000265           0.000559           0.635655           0.113568           0.107076           0.301048          -0.087122           0.157773
hessian_block                7      12           0.000485          -0.000240          -0.000360          -0.636219          -0.114272          -0.106600           0.300560          -0.087162           0.158366
hessian_block                7      13          -0.149027           0.026378          -0.046478          -0.264885           0.295369          -0.173123          -0.122690          -0.091344          -0.023649
hessian_block                7      14           0.121064           0.121933           0.014425           0.414137          -1.185139           0.361804          -0.154939           0.097244          -0.065785
hessian_block                7      15          -0.149134           0.026000          -0.046469           0.264735          -0.296077           0.173004          -0.122730          -0.091511          -0.023618
hessian_block                7      16           0.149093          -0.026315           0.046466          -0.264902           0.295362          -0.173120          -0.122721          -0.091378          -0.023633
hessian_block                7      17          -0.944394           0.825893          -1.120491           0.955717          -0.627826           0.960692          -1.253652           1.089901          -1.386328
hessian_block                7      18          -0.028627           0.007770           0.054971          -0.124756          -0.103474           0.007096          -0.080897           0.091251          -0.155131
hessian_block                7      19          -0.000005           0.000020           0.000003          -0.062701          -0.410629           0.143976           0.081585          -0.022591           0.034711
hessian_block                7      20          -0.394658          -0.094014          -0.144695          -0.031620           0.387482          -0.178501          -0.063353          -0.056606          -0.019189
hessian_block                8       8           4.362916          -1.007301          -1.425612          -1.007301           3.864869           1.285303          -1.425612           1.285303           3.767929
hessian_block                8       9          -0.918381           0.124384           0.150463          -0.124355           0.108566           0.087147          -0.150463           0.087134           0.029682
hessian_block                8      10           0.252113          -0.125417          -0.152008           0.125375          -0.108906          -0.086895          -0.151979           0.086899           0.029612
hessian_block                8      11           0.000494          -0.000246           0.000351          -0.636156          -0.113816           0.106869          -0.300493           0.086957           0.158317
hessian_block                8      12          -0.000596           0.000259          -0.000568           0.635554           0.114127          -0.107024          -0.300989           0.087487           0.158000
hessian_block                8      13           0.121029           0.121897          -0.014454           0.414140          -1.185190          -0.361775           0.154903          -0.097276          -0.065863
hessian_block                8      14          -0.148998           0.026470           0.046544          -0.264902           0.295479           0.173118           0.122637           0.091401          -0.023701
hessian_block                8      15           0.149056          -0.026416          -0.046527          -0.264918           0.295466           0.173115           0.122666           0.091432          -0.023682
hessian_block                8      16          -0.149104           0.026027           0.046503           0.264740          -0.296132          -0.172975           0.122697           0.091482          -0.023698
hessian_block                8      17          -0.028626           0.007767          -0.054969          -0.124704          -0.103369          -0.007013           0.080899          -0.091203          -0.155101
hessian_block                8      18          -0.944391           0.825889           1.120491           0.955657          -0.627829          -0.960745           1.253648          -1.089904          -1.386325
hessian_block                8      19          -0.394659          -0.094024           0.144694          -0.031619           0.387188           0.178290           0.063344           0.056904          -0.019079
hessian_block                8      20          -0.000006           0.000010          -0.000005          -0.062661          -0.411330          -0.144107          -0.081578           0.022288           0.034604