# =======================================================================
# Enargite (Cu3AsS4) unit cell, space group 31, ions relaxed with HSE06
# =======================================================================
# 
# This is the geometry file that corresponds to the current relaxation step.
# If you do not want this file to be written, set the "write_restart_geometry" flag to .false.
# 
lattice_vector      7.42600000      0.00000000      0.00000000
lattice_vector      0.00000000      6.45210000      0.00000000
lattice_vector      0.00000000      0.00000000      6.16310000
atom_frac      -0.00000012      0.82813318     -0.00066618 As
atom_frac       0.50000007      0.17186454      0.49933599 As
atom_frac       0.00000009      0.15382863      0.50060970 Cu
atom_frac       0.49999997      0.84617269      1.00060956 Cu
atom_frac       0.24828969      0.32668613      0.00708793 Cu
atom_frac       0.75171032      0.32668610      0.00708795 Cu
atom_frac       0.25171045      0.67331409      0.50708745 Cu
atom_frac       0.74828952      0.67331408      0.50708736 Cu
atom_frac       0.00000001      0.82280746      0.35804838 S
atom_frac       0.50000001      0.17719378      0.85804939 S
atom_frac       0.00000001      0.14869457      0.87588142 S
atom_frac       0.49999995      0.85130489      0.37588050 S
atom_frac       0.25651414      0.33464118      0.38007532 S
atom_frac       0.74348601      0.33464112      0.38007539 S
atom_frac       0.24348747      0.66535883      0.88007498 S
atom_frac       0.75651243      0.66535871      0.88007484 S
# 
# What follows is the current estimated Hessian matrix constructed by the BFGS algorithm.
# This is NOT the true Hessian matrix of the system.
# If you do not want this information here, switch it off using the "hessian_to_restart_geometry" keyword.
# 
trust_radius             0.2000000030
hessian_block                1       1          12.789817           0.000050          -0.000383           0.000050          14.587016          -0.280088          -0.000383          -0.280088          14.499562
hessian_block                1       2          -0.000000          -0.000190           0.000087          -0.000031          -1.538191          -0.050674          -0.000404           0.032372           1.239268
hessian_block                1       3           0.000453          -0.000074           0.000057          -0.000014          -0.058912          -0.177339           0.000315           0.279384           0.002646
hessian_block                1       4          -0.012233           0.000146           0.000246           0.000014           0.085981           0.201507           0.000315           0.305694           0.010495
hessian_block                1       5           0.007872           0.069764           0.110655          -0.013251          -0.037453          -0.117659           0.005567          -0.122467           0.029453
hessian_block                1       6           0.007907          -0.069792          -0.110942           0.013580          -0.037354          -0.117632          -0.005233          -0.122424           0.029401
hessian_block                1       7           0.010526          -0.063177          -0.096403          -0.005412           0.034103           0.103518          -0.015871          -0.109633           0.019990
hessian_block                1       8           0.010499           0.063177           0.096125           0.005082           0.034236           0.103154           0.016206          -0.109648           0.020100
hessian_block                1       9          -0.104359          -0.000201           0.000814          -0.000064          -0.509156           0.042262           0.000107           0.254194          -8.438038
hessian_block                1      10           0.000049          -0.000136           0.000326           0.000055           0.405703           0.072978           0.000107           0.138540          -0.157413
hessian_block                1      11          -0.094213           0.000035           0.000167          -0.000163          -7.665979           2.893169          -0.000133           2.378535          -1.623140
hessian_block                1      12          -0.000044           0.000197          -0.000300           0.000160           0.376313          -0.221548          -0.000122          -0.286903          -0.544334
hessian_block                1      13           0.000012           0.328445           0.181196           0.000094           0.559149           0.064785          -0.000143           0.026890          -0.292939
hessian_block                1      14          -0.000104          -0.328215          -0.181379           0.000105           0.559051           0.064684          -0.000086           0.026538          -0.291971
hessian_block                1      15          -5.308156           2.690749           1.959652           3.020627          -2.397384          -1.290206           2.136322          -1.205655          -1.251052
hessian_block                1      16          -5.308025          -2.690775          -1.959917          -3.020834          -2.397125          -1.290907          -2.136564          -1.205329          -1.252029
hessian_block                2       2          12.789816           0.000186           0.000089           0.000186          14.576792           0.253770           0.000089           0.253770          14.547527
hessian_block                2       3          -0.012233           0.000068           0.000063           0.000117           0.084536          -0.201715          -0.000244          -0.293714          -0.002586
hessian_block                2       4           0.000453          -0.000146           0.000244          -0.000118          -0.059042           0.174506          -0.000244          -0.266920          -0.009950
hessian_block                2       5           0.010487          -0.064808           0.100446          -0.005339           0.040898          -0.109242           0.015964           0.115250           0.011744
hessian_block                2       6           0.010538           0.064844          -0.100742           0.005154           0.040802          -0.109218          -0.016112           0.115208           0.011691
hessian_block                2       7           0.007916           0.070861          -0.109299          -0.013323          -0.043267           0.126036          -0.005473           0.127967           0.021416
hessian_block                2       8           0.007863          -0.070850           0.109008           0.013508          -0.043388           0.125662           0.005326           0.127981           0.021528
hessian_block                2       9           0.000049           0.000172           0.000844           0.000028           0.405838          -0.064719          -0.000044          -0.134759          -0.168850
hessian_block                2      10          -0.104358           0.000124           0.000338          -0.000026          -0.506420          -0.032895          -0.000042          -0.235704          -8.441585
hessian_block                2      11          -0.000044          -0.000039           0.000171           0.000122           0.367671           0.232149           0.000177           0.284933          -0.528754
hessian_block                2      12          -0.094213          -0.000188          -0.000307          -0.000121          -7.652513          -2.897137           0.000175          -2.381996          -1.633842
hessian_block                2      13          -5.308192           2.694724          -1.952156           3.020632          -2.393873           1.293951          -2.136360           1.200819          -1.255532
hessian_block                2      14          -5.307989          -2.694942           1.951964          -3.020829          -2.393775           1.293847           2.136528           1.201139          -1.254532
hessian_block                2      15           0.000056           0.328114          -0.173735           0.000094           0.557082          -0.058320           0.000115          -0.031503          -0.278264
hessian_block                2      16          -0.000149          -0.328091           0.173475           0.000104           0.556849          -0.059047           0.000057          -0.031798          -0.279274
hessian_block                3       3           8.034089          -0.000156           0.000144          -0.000156           8.445776           1.279345           0.000144           1.279345           7.925109
hessian_block                3       4           0.000000           0.000392          -0.000540           0.000156           0.592991          -0.871374           0.000143           0.871825          -1.121548
hessian_block                3       5           0.004777           0.139906          -0.210142           0.003074           0.409977          -0.551930          -0.008678           0.289677          -0.341700
hessian_block                3       6           0.004681          -0.140025           0.210425          -0.002873           0.410059          -0.551987           0.008630           0.289713          -0.341703
hessian_block                3       7           0.003825          -0.142224           0.213279           0.010266          -0.413293           0.561483           0.003839           0.296269          -0.334079
hessian_block                3       8           0.003917           0.142380          -0.213362          -0.010467          -0.413348           0.561744          -0.003886           0.296466          -0.334388
hessian_block                3       9          -0.042955          -0.000114          -0.000260           0.000051          -4.569674          -2.155994           0.000017          -1.951337          -0.618100
hessian_block                3      10          -0.000027          -0.000052          -0.000107          -0.000048          -0.143777           0.270142           0.000017          -0.069217           0.201908
hessian_block                3      11          -0.041182           0.000048          -0.000119           0.000036          -0.223896           0.183656          -0.000132          -0.568871          -4.381716
hessian_block                3      12          -0.000009          -0.000130           0.000340          -0.000035           0.167275          -0.110929          -0.000136          -0.634534           0.889147
hessian_block                3      13          -2.977648          -1.561402           0.838898          -1.796595          -0.967162           0.535635           1.143840           0.422314          -0.127462
hessian_block                3      14          -2.977642           1.561664          -0.839132           1.796688          -0.967309           0.535867          -1.143880           0.422336          -0.127972
hessian_block                3      15          -0.000017          -0.240619           0.301864           0.000009          -0.176661           0.164211          -0.000101          -0.282438           0.355937
hessian_block                3      16          -0.000029           0.240228          -0.301357          -0.000100          -0.176582           0.164463           0.000065          -0.282495           0.356507
hessian_block                4       4           8.034089          -0.000393          -0.000540          -0.000393           8.445215          -1.280221          -0.000540          -1.280221           7.923496
hessian_block                4       5           0.003816          -0.143176          -0.216470           0.010206          -0.413821          -0.561734          -0.004221          -0.296738          -0.336018
hessian_block                4       6           0.003926           0.143296           0.216753          -0.010528          -0.413904          -0.561791           0.003504          -0.296774          -0.336021
hessian_block                4       7           0.004783           0.139446           0.207068           0.003134           0.410364           0.551337           0.008297          -0.288428          -0.341817
hessian_block                4       8           0.004674          -0.139603          -0.207151          -0.002812           0.410418           0.551597          -0.009011          -0.288625          -0.342127
hessian_block                4       9          -0.000027           0.000113          -0.000261          -0.000121          -0.143857          -0.275109          -0.000110           0.068190           0.200951
hessian_block                4      10          -0.042955           0.000052          -0.000107           0.000121          -4.569711           2.151299          -0.000109           1.953764          -0.616802
hessian_block                4      11          -0.000009          -0.000048          -0.000119           0.000084           0.166872           0.109653           0.000425           0.636198           0.885179
hessian_block                4      12          -0.041182           0.000131           0.000340          -0.000084          -0.223175          -0.185251           0.000425           0.568339          -4.376167
hessian_block                4      13          -0.000065          -0.241374          -0.307372          -0.000009          -0.176990          -0.167084           0.000430           0.281161           0.359665
hessian_block                4      14           0.000018           0.241112           0.307138          -0.000118          -0.176841          -0.166851           0.000265           0.281138           0.359154
hessian_block                4      15          -2.977604          -1.561897          -0.843911          -1.796577          -0.967211          -0.538348          -1.143511          -0.421349          -0.129531
hessian_block                4      16          -2.977686           1.562288           0.844418           1.796705          -0.967290          -0.538095           1.144208          -0.421292          -0.128961
hessian_block                5       5           9.245720          -0.142807          -0.182932          -0.142807           8.207761           0.844427          -0.182932           0.844427           9.035545
hessian_block                5       6           0.024075           0.179140          -0.036308          -0.179008          -0.561470           0.413847           0.036435           0.414022          -1.017925
hessian_block                5       7           0.035105           0.176764          -0.036317           0.178920           0.578312          -0.396151           0.035546           0.395373          -1.023403
hessian_block                5       8          -0.034939          -0.177277           0.036162           0.179370           0.571072          -0.406782           0.035276           0.405910          -1.023325
hessian_block                5       9          -0.000004          -0.000172          -0.000051          -0.059708          -0.042977          -0.079639          -0.065283          -0.067375           0.299060
hessian_block                5      10          -3.838029           1.949957           1.841044           2.010856          -1.008713          -0.873823           1.779338          -1.019856          -0.664969
hessian_block                5      11          -3.352202          -2.036505          -1.470567          -1.942311          -1.262973          -0.809005          -1.363084          -0.529542          -0.227138
hessian_block                5      12           0.000001           0.000232           0.000056          -0.099796          -0.046261          -0.096297           0.104264           0.375050           0.479277
hessian_block                5      13          -0.128132          -0.161067          -0.274594          -0.023477          -0.363925           0.003079          -0.140387          -0.369911          -4.997060
hessian_block                5      14           0.067355           0.162204           0.129855          -0.025096          -0.308904           0.146728          -0.003887          -0.222468           0.797171
hessian_block                5      15           0.021764           0.214309           0.112463           0.075966          -4.069273           1.415621          -0.016629           1.338606           0.183545
hessian_block                5      16          -0.067665          -0.159469          -0.127442           0.025404           0.307753          -0.147728          -0.003144          -0.223672           0.795742
hessian_block                6       6           9.245711           0.142941           0.183084           0.142941           8.207867           0.844272           0.183084           0.844272           9.035518
hessian_block                6       7          -0.034879           0.177220          -0.036076          -0.179508           0.570863          -0.406842          -0.035178           0.405889          -1.023242
hessian_block                6       8           0.035177          -0.176823           0.036380          -0.179048           0.578415          -0.396111          -0.035367           0.395064          -1.023512
hessian_block                6       9          -0.000174          -0.000164          -0.000174           0.059733          -0.043035          -0.079654           0.065432          -0.067308           0.299105
hessian_block                6      10          -3.838097          -1.950127          -1.841047          -2.010884          -1.008657          -0.873810          -1.779190          -1.019790          -0.664923
hessian_block                6      11          -3.352217           2.036444           1.470342           1.942185          -1.263005          -0.809065           1.362933          -0.529475          -0.227113
hessian_block                6      12          -0.000023           0.000096           0.000112           0.099921          -0.046231          -0.096238          -0.104410           0.375119           0.479303
hessian_block                6      13           0.067462          -0.162344          -0.129863           0.025166          -0.308970           0.146612           0.003819          -0.222068           0.797334
hessian_block                6      14          -0.128074           0.160920           0.274549           0.023498          -0.363773           0.003181           0.140190          -0.370081          -4.997211
hessian_block                6      15          -0.067748           0.159638           0.127668          -0.025528           0.307578          -0.147843           0.002951          -0.223856           0.795535
hessian_block                6      16           0.021734          -0.214129          -0.112198          -0.075936          -4.069187           1.415749           0.016550           1.339017           0.183761
hessian_block                7       7           9.245895          -0.140878           0.181958          -0.140878           8.207750          -0.844567           0.181958          -0.844567           9.038311
hessian_block                7       8           0.023959           0.177135           0.037496          -0.177074          -0.561691          -0.414103          -0.037382          -0.414008          -1.015242
hessian_block                7       9          -3.838143           1.950211          -1.841157           2.010476          -1.006097           0.871737          -1.780086           1.019325          -0.668570
hessian_block                7      10          -0.000120           0.000082          -0.000063          -0.060457          -0.040343           0.077179           0.063589           0.066824           0.301596
hessian_block                7      11          -0.000018           0.000099          -0.000085          -0.098600          -0.044927           0.096290          -0.103768          -0.371936           0.475878
hessian_block                7      12          -3.352222          -2.036639           1.470538          -1.943971          -1.262717           0.808842           1.365704           0.526373          -0.225882
hessian_block                7      13           0.020902           0.217048          -0.114412           0.074818          -4.067877          -1.416947           0.018406          -1.340283           0.184201
hessian_block                7      14          -0.066779          -0.162239           0.129609           0.024307           0.308910           0.146633           0.004806           0.222579           0.796031
hessian_block                7      15          -0.127789          -0.158269           0.272118          -0.022969          -0.362434          -0.004540           0.140452           0.372170          -4.999894
hessian_block                7      16           0.067040           0.159375          -0.127160          -0.024542          -0.307654          -0.147959           0.004069           0.224143           0.794706
hessian_block                8       8           9.245768           0.140933          -0.181924           0.140933           8.207437          -0.844375          -0.181924          -0.844375           9.038118
hessian_block                8       9          -3.837984          -1.949874           1.840934          -2.010503          -1.006128           0.871709           1.780141           1.019530          -0.668664
hessian_block                8      10          -0.000057           0.000089           0.000059           0.060479          -0.040316           0.077208          -0.063533           0.067027           0.301503
hessian_block                8      11          -0.000005          -0.000037          -0.000140           0.098520          -0.045111           0.096371           0.103929          -0.372025           0.476110
hessian_block                8      12          -3.352197           2.036310          -1.470370           1.944049          -1.262535           0.808762          -1.365537           0.526291          -0.225652
hessian_block                8      13          -0.066888           0.162422          -0.129688          -0.024396           0.309115           0.146438          -0.004862           0.222241           0.796313
hessian_block                8      14           0.020851          -0.216944           0.114436          -0.074855          -4.067891          -1.416923          -0.018345          -1.340048           0.184172
hessian_block                8      15           0.067119          -0.159593           0.127455           0.024674          -0.307621          -0.147994          -0.004020           0.224385           0.794622
hessian_block                8      16          -0.127759           0.158137          -0.271924           0.022959          -0.362664          -0.004334          -0.140506           0.371814          -4.999556
hessian_block                9       9           9.803975           0.000074          -0.000437           0.000074           9.070681          -0.130390          -0.000437          -0.130390          13.687910
hessian_block                9      10           0.000000           0.000040          -0.000232          -0.000062          -0.177749          -0.002058          -0.000435          -0.000773           0.665492
hessian_block                9      11           0.000448          -0.000019          -0.000047           0.000395          -0.035144          -0.583072          -0.000062           0.334008          -0.236446
hessian_block                9      12          -0.010659          -0.000021           0.000236          -0.000391           0.059103           0.563800          -0.000078           0.296547          -0.223333
hessian_block                9      13           0.004061          -0.008732           0.069619          -0.006878          -0.345739          -0.136998          -0.002990           0.101217          -0.527268
hessian_block                9      14           0.004116           0.008638          -0.069535           0.006779          -0.345688          -0.136954           0.003141           0.101283          -0.527864
hessian_block                9      15           0.010865           0.013345          -0.079948          -0.005984           0.344843           0.142392           0.024072           0.083789          -0.537979
hessian_block                9      16           0.010789          -0.013215           0.080169           0.006093           0.344779           0.142820          -0.023900           0.083725          -0.537405
hessian_block               10      10           9.803974          -0.000035          -0.000231          -0.000035           9.069533           0.124767          -0.000231           0.124767          13.680876
hessian_block               10      11          -0.010659           0.000021          -0.000046           0.000201           0.062769          -0.562817          -0.000027          -0.296102          -0.231199
hessian_block               10      12           0.000448           0.000017           0.000234          -0.000199          -0.039786           0.577685          -0.000033          -0.332347          -0.234008
hessian_block               10      13           0.010800           0.011899           0.076458          -0.006068           0.343566          -0.146155          -0.023968          -0.081506          -0.537162
hessian_block               10      14           0.010853          -0.011809          -0.076376           0.006010           0.343516          -0.146112           0.024003          -0.081559          -0.537755
hessian_block               10      15           0.004120          -0.008688          -0.072125          -0.006796          -0.344834           0.135695           0.003086          -0.099764          -0.533065
hessian_block               10      16           0.004058           0.008561           0.072344           0.006859          -0.344780           0.136120          -0.003043          -0.099712          -0.532494
hessian_block               11      11           8.822056           0.000049           0.000056           0.000049          12.539596          -1.089395           0.000056          -1.089395           9.241367
hessian_block               11      12          -0.000000          -0.000234          -0.000190          -0.000049          -0.588214           0.154445           0.000054          -0.159076          -0.501227
hessian_block               11      13           0.005199          -0.238287           0.197508           0.002933           0.263406          -0.000171           0.007621           0.101950          -0.284703
hessian_block               11      14           0.005205           0.238168          -0.197256          -0.002937           0.263360          -0.000337          -0.007455           0.102516          -0.284606
hessian_block               11      15           0.008824           0.236880          -0.204834           0.021724          -0.267001          -0.015143          -0.010256           0.098613          -0.276170
hessian_block               11      16           0.008816          -0.237046           0.204458          -0.021718          -0.267420          -0.015124           0.010425           0.098063          -0.276322
hessian_block               12      12           8.822056           0.000233          -0.000185           0.000233          12.535196           1.094079          -0.000185           1.094079           9.242864
hessian_block               12      13           0.008911           0.232829           0.206547           0.021829          -0.270080           0.016740           0.010217          -0.095438          -0.276229
hessian_block               12      14           0.008729          -0.232712          -0.206289          -0.021614          -0.270034           0.016575          -0.010465          -0.095998          -0.276149
hessian_block               12      15           0.005108          -0.241238          -0.195649           0.002826           0.261621          -0.000146          -0.007666          -0.104662          -0.286816
hessian_block               12      16           0.005297           0.241405           0.195272          -0.003043           0.262036          -0.000112           0.007410          -0.104116          -0.286950
hessian_block               13      13          10.583189          -1.484832           1.175037          -1.484832           9.751502          -0.255671           1.175037          -0.255671           9.420300
hessian_block               13      14          -0.219857           0.196491          -0.050372          -0.196515           0.370169          -0.038643           0.050334          -0.038647          -0.414266
hessian_block               13      15          -0.206058           0.202471          -0.054143           0.203674          -0.347555           0.018082           0.056187          -0.017412          -0.423361
hessian_block               13      16           0.206304          -0.202180           0.053856           0.203512          -0.354737           0.028847           0.056301          -0.028154          -0.421831
hessian_block               14      14          10.583191           1.484754          -1.174857           1.484754           9.751549          -0.255900          -1.174857          -0.255900           9.420633
hessian_block               14      15           0.206240           0.202211          -0.054024          -0.203393          -0.354794           0.029082          -0.056124          -0.028402          -0.421446
hessian_block               14      16          -0.206116          -0.202386           0.053733          -0.203696          -0.347545           0.018093          -0.056231          -0.017391          -0.423391