#============================================================================================
# Bournonite (CuPbSbS3) unit cell, space group 31, ions relaxed with HSE06, axes rotated with ASE
#============================================================================================
lattice_vector 8.7040000000000006 0.0000000000000000 0.0000000000000000 
lattice_vector 0.0000000000000000 7.8109999999999999 0.0000000000000000 
lattice_vector 0.0000000000000000 0.0000000000000000 8.1519999999999992 
atom 0.0000011315200000 0.6017645952599999 8.1433953194399997 Pb
atom 4.3519805030400001 7.2091786968799996 4.0673413531999998 Pb
atom 4.3519787622400008 4.5199100574899997 1.4272564805599999 Pb
atom -0.0000095744000000 3.2910947072200001 5.5032619424000000 Pb
atom 4.3520041779199996 0.5799327721499999 0.2704442304000000 Sb
atom -0.0000056576000000 7.2310076299200006 4.3464066496799996 Sb
atom 0.0000030464000000 4.0829609990700000 1.1610463174399999 Sb
atom 4.3520051353599998 3.7281155487300000 5.2369548519999993 Sb
atom 2.1697285068800003 2.1781970964699999 3.3590611917599995 Cu
atom 6.5342760192000009 2.1781953780499999 3.3590611917599995 Cu
atom 2.1822741043200002 5.6327968109500004 7.4350620069599991 Cu
atom 6.5217238937599999 5.6327898591599999 7.4350612732799997 Cu
atom 0.0000033945600000 2.0026960335199999 2.4328464405599997 S
atom 4.3519997388800000 5.8083233377600001 6.5088648640799995 S
atom 4.3520021760000009 1.8579315680100001 2.3631770029599997 S
atom 0.0000012185600000 5.9530878813800001 6.4391942036799996 S
atom 1.9081602508800002 0.7515195867800000 5.1927284585599995 S
atom 6.7958454937600008 0.7515136504200000 5.1927243010399993 S
atom 2.4438553292800003 7.0595138442999996 1.1167029427999999 S
atom 6.2601545062400001 7.0595038462200002 1.1167052253599998 S
atom 2.5295180953599998 4.5261064456800000 3.7879785902399994 S
atom 6.1744848640000001 4.5261016028600007 3.7879830738400000 S
atom 1.8225121075200001 3.2848830094699997 7.8639794869599990 S
atom 6.8815029503999998 3.2848752765800002 7.8639750848799999 S
