Zn4 Cd8 Cl24                            
   1.00000000000000     
     6.6061120800912780    0.0000000000000000    0.0000000000000000
     0.0000000000000000    6.6061120800912780    0.0000000000000000
     0.0000000000000000    0.0000000000000000   20.4679233945123933
   Zn   Cd   Cl
     4     8    24
Direct
  0.5000000000000000  0.5000000000000000  0.5000000000000000
  0.0000000000000000  0.5000000000000000  0.0000000000000000
  0.5000000000000000  0.0000000000000000  0.0000000000000000
  0.0000000000000000  0.0000000000000000  0.5000000000000000
  0.0620998250564497  0.0620998250564497  0.8167879737644981
  0.4379001749435503  0.4379001749435503  0.8167879737644981
  0.5620998250564497  0.5620998250564497  0.1832120262355019
  0.0620998250564497  0.4379001749435503  0.3167879737644981
  0.4379001749435503  0.0620998250564497  0.3167879737644981
  0.9379001749435503  0.5620998250564497  0.6832120262355019
  0.5620998250564497  0.9379001749435503  0.6832120262355019
  0.9379001749435503  0.9379001749435503  0.1832120262355019
  0.7500000000000000  0.7500000000000000  0.7871032005965901
  0.7500000000000000  0.7500000000000000  0.2871032005965901
  0.2500000000000000  0.2500000000000000  0.7128967994034099
  0.2500000000000000  0.2500000000000000  0.2128967994034099
  0.7500000000000000  0.2500000000000000  0.2500000000000000
  0.2500000000000000  0.7500000000000000  0.7500000000000000
  0.2500000000000000  0.7500000000000000  0.2500000000000000
  0.7500000000000000  0.2500000000000000  0.7500000000000000
  0.7500000000000000  0.7500000000000000  0.9578005701500061
  0.7500000000000000  0.7500000000000000  0.4578005701500061
  0.2500000000000000  0.2500000000000000  0.5421994298499939
  0.2500000000000000  0.2500000000000000  0.0421994298499939
  0.0748448935688657  0.0748448935688657  0.3717457208485655
  0.4251551064311343  0.0748448935688657  0.8717457208485655
  0.0748448935688657  0.4251551064311343  0.8717457208485655
  0.5748448935688657  0.9251551064311343  0.1282542791514345
  0.9251551064311343  0.5748448935688657  0.1282542791514345
  0.4251551064311343  0.4251551064311343  0.3717457208485655
  0.5748448935688657  0.5748448935688657  0.6282542791514345
  0.9251551064311343  0.9251551064311343  0.6282542791514345
  0.7500000000000000  0.2500000000000000  0.0000000000000000
  0.2500000000000000  0.7500000000000000  0.5000000000000000
  0.2500000000000000  0.7500000000000000  0.0000000000000000
  0.7500000000000000  0.2500000000000000  0.5000000000000000
 
  0.00000000E+00  0.00000000E+00  0.00000000E+00
  0.00000000E+00  0.00000000E+00  0.00000000E+00
  0.00000000E+00  0.00000000E+00  0.00000000E+00
  0.00000000E+00  0.00000000E+00  0.00000000E+00
  0.00000000E+00  0.00000000E+00  0.00000000E+00
  0.00000000E+00  0.00000000E+00  0.00000000E+00
  0.00000000E+00  0.00000000E+00  0.00000000E+00
  0.00000000E+00  0.00000000E+00  0.00000000E+00
  0.00000000E+00  0.00000000E+00  0.00000000E+00
  0.00000000E+00  0.00000000E+00  0.00000000E+00
  0.00000000E+00  0.00000000E+00  0.00000000E+00
  0.00000000E+00  0.00000000E+00  0.00000000E+00
  0.00000000E+00  0.00000000E+00  0.00000000E+00
  0.00000000E+00  0.00000000E+00  0.00000000E+00
  0.00000000E+00  0.00000000E+00  0.00000000E+00
  0.00000000E+00  0.00000000E+00  0.00000000E+00
  0.00000000E+00  0.00000000E+00  0.00000000E+00
  0.00000000E+00  0.00000000E+00  0.00000000E+00
  0.00000000E+00  0.00000000E+00  0.00000000E+00
  0.00000000E+00  0.00000000E+00  0.00000000E+00
  0.00000000E+00  0.00000000E+00  0.00000000E+00
  0.00000000E+00  0.00000000E+00  0.00000000E+00
  0.00000000E+00  0.00000000E+00  0.00000000E+00
  0.00000000E+00  0.00000000E+00  0.00000000E+00
  0.00000000E+00  0.00000000E+00  0.00000000E+00
  0.00000000E+00  0.00000000E+00  0.00000000E+00
  0.00000000E+00  0.00000000E+00  0.00000000E+00
  0.00000000E+00  0.00000000E+00  0.00000000E+00
  0.00000000E+00  0.00000000E+00  0.00000000E+00
  0.00000000E+00  0.00000000E+00  0.00000000E+00
  0.00000000E+00  0.00000000E+00  0.00000000E+00
  0.00000000E+00  0.00000000E+00  0.00000000E+00
  0.00000000E+00  0.00000000E+00  0.00000000E+00
  0.00000000E+00  0.00000000E+00  0.00000000E+00
  0.00000000E+00  0.00000000E+00  0.00000000E+00
  0.00000000E+00  0.00000000E+00  0.00000000E+00
