Sc2 Zn2 F10                             
   1.00000000000000     
     5.2495275366588796    0.4632121931898856   -1.8504219990267730
    -1.9152906982353057    5.1440710793435009   -1.0371819250711682
    -0.0067957841669758   -0.4623124621413388    7.9095202543945300
   Sc   Zn   F 
     2     2    10
Direct
  0.5000000000000000  0.0000000000000000  0.5000000000000000
  0.0000000000000000  0.0000000000000000  0.0000000000000000
  0.8108669900098064  0.5609264687982147  0.2499523231450951
  0.1891330099901936  0.4390735312017853  0.7500476768549049
  0.3041919791213274  0.0542233465176665  0.2500236890041379
  0.6958080208786726  0.9457766534823335  0.7499763109958621
  0.5851859581777958  0.6952022484547911  0.3578365270772679
  0.8373686649701000  0.2274197529168447  0.1421265312161779
  0.7871880937138727  0.6961152934659296  0.0389390231672948
  0.1571122843103652  0.7482790897693405  0.4610478091148025
  0.2128119062861273  0.3038847065340704  0.9610609768327052
  0.8428877156896348  0.2517209102306595  0.5389521908851975
  0.1626313350299000  0.7725802470831553  0.8578734687838221
  0.4148140418222042  0.3047977515452089  0.6421634729227321
 
  0.00000000E+00  0.00000000E+00  0.00000000E+00
  0.00000000E+00  0.00000000E+00  0.00000000E+00
  0.00000000E+00  0.00000000E+00  0.00000000E+00
  0.00000000E+00  0.00000000E+00  0.00000000E+00
  0.00000000E+00  0.00000000E+00  0.00000000E+00
  0.00000000E+00  0.00000000E+00  0.00000000E+00
  0.00000000E+00  0.00000000E+00  0.00000000E+00
  0.00000000E+00  0.00000000E+00  0.00000000E+00
  0.00000000E+00  0.00000000E+00  0.00000000E+00
  0.00000000E+00  0.00000000E+00  0.00000000E+00
  0.00000000E+00  0.00000000E+00  0.00000000E+00
  0.00000000E+00  0.00000000E+00  0.00000000E+00
  0.00000000E+00  0.00000000E+00  0.00000000E+00
  0.00000000E+00  0.00000000E+00  0.00000000E+00
