Kesterite Cu2ZnSnS4 (CZTS)                          
1.0
        5.3597002029         0.0000000000         0.0000000000
        0.0000000000         5.3597002029         0.0000000000
        0.0000000000         0.0000000000        10.8313999176
    S   Cu   Zn   Sn
    8    4    2    2
Direct
     0.240119994         0.231350005         0.129859999
     0.759880006         0.768649995         0.129859999
     0.231350005         0.759880006         0.870140016
     0.768649995         0.240119994         0.870140016
     0.740119994         0.731350005         0.629859984
     0.259880006         0.268649995         0.629859984
     0.731350005         0.259880006         0.370140016
     0.268649995         0.740119994         0.370140016
     0.000000000         0.000000000         0.000000000
     0.500000000         0.500000000         0.500000000
     0.500000000         0.000000000         0.250000000
     0.000000000         0.500000000         0.750000000
     0.000000000         0.500000000         0.250000000
     0.500000000         0.000000000         0.750000000
     0.000000000         0.000000000         0.500000000
     0.500000000         0.500000000         0.000000000
