Kesterite Cu2ZnSnSe4 (CZTSe)                                                         
1.0
        5.6593999863         0.0000000000         0.0000000000
        0.0000000000         5.6593999863         0.0000000000
        0.0000000000         0.0000000000        11.3088998795
   Se   Cu   Zn   Sn
    8    4    2    2
Direct
     0.770839989         0.260769993         0.880670011
     0.229159996         0.739230037         0.880670011
     0.260769993         0.229159996         0.119329996
     0.739230037         0.770839989         0.119329996
     0.270839989         0.760769963         0.380670011
     0.729160011         0.239230007         0.380670011
     0.760769963         0.729160011         0.619329989
     0.239230007         0.270839989         0.619329989
     0.000000000         0.000000000         0.000000000
     0.500000000         0.500000000         0.500000000
     0.000000000         0.500000000         0.750000000
     0.500000000         0.000000000         0.250000000
     0.500000000         0.500000000         0.000000000
     0.000000000         0.000000000         0.500000000
     0.500000000         0.000000000         0.750000000
     0.000000000         0.500000000         0.250000000
