Mn1 Zn1 Br4                             
   1.00000000000000     
     5.6015707040713556    0.0025704080985856   -2.7678521967415786
    -1.3634085217279466    5.4336607127449943   -2.7670396255823735
    -0.0412546298201765   -0.0519111632746885    6.9742142657700805
   Mn   Zn   Br
     1     1     4
Direct
  0.2500954718860526  0.7501888313839001  0.4999745940754144
  0.4997867877471138  0.4998017161612873  0.9998863758741952
  0.5961723543036598  0.6172880989900197  0.7506230330044540
  0.8671810933206757  0.4039340621681471  0.2493712085902589
  0.3821568892298514  0.8455657319578002  0.2490438067422329
  0.1546074035126538  0.1332215593388455  0.7511009817134445
 
  0.00000000E+00  0.00000000E+00  0.00000000E+00
  0.00000000E+00  0.00000000E+00  0.00000000E+00
  0.00000000E+00  0.00000000E+00  0.00000000E+00
  0.00000000E+00  0.00000000E+00  0.00000000E+00
  0.00000000E+00  0.00000000E+00  0.00000000E+00
  0.00000000E+00  0.00000000E+00  0.00000000E+00
