Co2 Ru4 Br16                            
   1.00000000000000     
     8.4771183447388356   -0.0066444279148396    3.6537566245351423
     3.6745385335246628    9.2998868729698021    3.1228352052733279
     0.4669265499684786   -0.0630156729339493   10.6285582010781798
   Co   Ru   Br
     2     4    16
Direct
  0.9711207507051127  0.7501140820701937  0.2503840060229440
  0.0288792492948871  0.2498859179298135  0.7496159939770559
  0.3432730520895598  0.3661698710849476  0.4474261728332204
  0.1547884402187518  0.1358682672875325  0.0522322965043184
  0.6567269479104401  0.6338301289150524  0.5525738271667796
  0.8452115597812482  0.8641317327124673  0.9477677034956815
  0.6194311439440663  0.2196108223470272  0.4589667485146974
  0.9047052782526004  0.0629561467399850  0.7756762059619464
  0.2966240228377108  0.2824983848727365  0.0400582223423748
  0.7033759771622892  0.7175016151272634  0.9599417776576251
  0.7252446494743100  0.9457042138667313  0.1701806563157566
  0.7430414686349891  0.4342751664805303  0.7236500312240030
  0.0952947217473996  0.9370438532600150  0.2243237940380536
  0.2569585313650110  0.5657248335194698  0.2763499687759972
  0.8958490750247841  0.2860533660170462  0.0056927030510185
  0.8436492401947326  0.5521530807274516  0.3305502386009251
  0.1041509249752158  0.7139466339829466  0.9943072969489816
  0.3805688560559337  0.7803891776529729  0.5410332514853026
  0.8096087781559828  0.7862764859396869  0.5066783176819075
  0.1903912218440101  0.2137235140603131  0.4933216823180925
  0.1563507598052673  0.4478469192725482  0.6694497613990749
  0.2747553505256900  0.0542957861332685  0.8298193436842434
 
  0.00000000E+00  0.00000000E+00  0.00000000E+00
  0.00000000E+00  0.00000000E+00  0.00000000E+00
  0.00000000E+00  0.00000000E+00  0.00000000E+00
  0.00000000E+00  0.00000000E+00  0.00000000E+00
  0.00000000E+00  0.00000000E+00  0.00000000E+00
  0.00000000E+00  0.00000000E+00  0.00000000E+00
  0.00000000E+00  0.00000000E+00  0.00000000E+00
  0.00000000E+00  0.00000000E+00  0.00000000E+00
  0.00000000E+00  0.00000000E+00  0.00000000E+00
  0.00000000E+00  0.00000000E+00  0.00000000E+00
  0.00000000E+00  0.00000000E+00  0.00000000E+00
  0.00000000E+00  0.00000000E+00  0.00000000E+00
  0.00000000E+00  0.00000000E+00  0.00000000E+00
  0.00000000E+00  0.00000000E+00  0.00000000E+00
  0.00000000E+00  0.00000000E+00  0.00000000E+00
  0.00000000E+00  0.00000000E+00  0.00000000E+00
  0.00000000E+00  0.00000000E+00  0.00000000E+00
  0.00000000E+00  0.00000000E+00  0.00000000E+00
  0.00000000E+00  0.00000000E+00  0.00000000E+00
  0.00000000E+00  0.00000000E+00  0.00000000E+00
  0.00000000E+00  0.00000000E+00  0.00000000E+00
  0.00000000E+00  0.00000000E+00  0.00000000E+00
