SbXY                                    
   1.0000000000000000     
    20.5636132595569485    0.0000000000000000    0.0000000000000000
     0.0000000000000000    5.3686845281595970   -0.0000000000000003
     0.0000000000000000   -0.0000000000000001    3.8641141965950565
   Sb   X    Y 
     4     4     4
Direct
  0.0580941792265208  0.2500000000000000  0.2492282424836669
  0.9419058207734784  0.7500000000000000  0.7507717725163515
  0.4419058207734792  0.7500000000000000  0.7492282274836556
  0.5580941792265216  0.2500000000000000  0.2507717725163380
  0.0355455131398199  0.7500000000000000  0.2507036632536365
  0.9644544938601775  0.2500000000000000 -0.2507036862536349
  0.4644544938601843  0.2500000000000000  0.7507036862536342
  0.5355455061398225  0.7500000000000000  0.2492963437463679
  0.1855807019068723  0.2500000000000000  0.7460254454789436
  0.8144192980931273  0.7500000000000000  0.2539745735210544
  0.3144192980931275  0.7500000000000000  0.2460254264789458
  0.6855807019068727  0.2500000000000000  0.7539745435210591

  0.00000000E+00  0.00000000E+00  0.00000000E+00
  0.00000000E+00  0.00000000E+00  0.00000000E+00
  0.00000000E+00  0.00000000E+00  0.00000000E+00
  0.00000000E+00  0.00000000E+00  0.00000000E+00
  0.00000000E+00  0.00000000E+00  0.00000000E+00
  0.00000000E+00  0.00000000E+00  0.00000000E+00
  0.00000000E+00  0.00000000E+00  0.00000000E+00
  0.00000000E+00  0.00000000E+00  0.00000000E+00
  0.00000000E+00  0.00000000E+00  0.00000000E+00
  0.00000000E+00  0.00000000E+00  0.00000000E+00
  0.00000000E+00  0.00000000E+00  0.00000000E+00
  0.00000000E+00  0.00000000E+00  0.00000000E+00
