SbXY                                    
   1.00000000000000     
    10.0345466825063063    0.0000000000000000    0.0000000000000000
     0.0000000000000000    5.2438161600039406    0.0000000000000001
     0.0000000000000000    0.0000000000000001    6.8484168623308905
   Sb   X    Y 
     4     4     4
Direct
  0.0701954756396356  0.2500000000000000  0.1955904527436075
  0.9298045243603714  0.7500000000000000  0.8044095622563973
  0.4298045243603644  0.7500000000000000  0.6955904377436027
  0.5701954756396286  0.2500000000000000  0.3044095622563973
  0.0441663041219306  0.7500000000000000  0.1187474877771927
  0.9558337028780878  0.2500000000000000  0.8812524892228019
  0.4558337028780592  0.2500000000000000  0.6187475107771981
  0.5441662971219122  0.7500000000000000  0.3812525192228043
  0.3219006916550095  0.2500000000000000  0.0495178078351176
  0.6780993083449978  0.7500000000000000  0.9504822111648591
  0.1780993083449834  0.7500000000000000  0.5495177888351409
  0.8219006916550022  0.2500000000000000  0.4504821811648780
 
  0.00000000E+00  0.00000000E+00  0.00000000E+00
  0.00000000E+00  0.00000000E+00  0.00000000E+00
  0.00000000E+00  0.00000000E+00  0.00000000E+00
  0.00000000E+00  0.00000000E+00  0.00000000E+00
  0.00000000E+00  0.00000000E+00  0.00000000E+00
  0.00000000E+00  0.00000000E+00  0.00000000E+00
  0.00000000E+00  0.00000000E+00  0.00000000E+00
  0.00000000E+00  0.00000000E+00  0.00000000E+00
  0.00000000E+00  0.00000000E+00  0.00000000E+00
  0.00000000E+00  0.00000000E+00  0.00000000E+00
  0.00000000E+00  0.00000000E+00  0.00000000E+00
  0.00000000E+00  0.00000000E+00  0.00000000E+00
