SbXY                                    
   1.0000000000000000     
    10.6802911782945653    0.0000000000000000    0.0000000000000000
     0.0000000000000000    5.4729097829690359    0.0000000000000004
     0.0000000000000000   -0.0000000000000001    7.2410200414312236
   Sb   X    Y 
     4     4     4
Direct
  0.0562122468956078  0.2500000000000000  0.2019930629329527
  0.9437877531043921  0.7500000000000000  0.7980069520670376
  0.4437877531043923  0.7500000000000000  0.7019930479329624
  0.5562122468956079  0.2500000000000000  0.2980069520670236
  0.0641414473649085  0.7500000000000000  0.1076356352107290
  0.9358585596350745  0.2500000000000000  0.8923643417892939
  0.4358585596350744  0.2500000000000000  0.6076356582107061
  0.5641414403649255  0.7500000000000000  0.3923643717892965
  0.3237005729389841  0.2500000000000000  0.0479518237253012
  0.6762994270609949  0.7500000000000000  0.9520481952746613
  0.1762994270610087  0.7500000000000000  0.5479518047253387
  0.8237005729390051  0.2500000000000000  0.4520481652747087

  0.00000000E+00  0.00000000E+00  0.00000000E+00
  0.00000000E+00  0.00000000E+00  0.00000000E+00
  0.00000000E+00  0.00000000E+00  0.00000000E+00
  0.00000000E+00  0.00000000E+00  0.00000000E+00
  0.00000000E+00  0.00000000E+00  0.00000000E+00
  0.00000000E+00  0.00000000E+00  0.00000000E+00
  0.00000000E+00  0.00000000E+00  0.00000000E+00
  0.00000000E+00  0.00000000E+00  0.00000000E+00
  0.00000000E+00  0.00000000E+00  0.00000000E+00
  0.00000000E+00  0.00000000E+00  0.00000000E+00
  0.00000000E+00  0.00000000E+00  0.00000000E+00
  0.00000000E+00  0.00000000E+00  0.00000000E+00
