SbXY                                    
   1.0000000000000000     
     8.1721795671427238    0.0000000000000000    0.0000000000000000
     0.0000000000000000    9.8041597523637840    0.0000000000000000
     0.0000000000000000    0.0000000000000000    3.9104203747663120
   Sb   X    Y 
     4     4     4
Direct
  0.1220190352835790  0.1337017057419498  0.2621406318024633
  0.8779809717164243  0.8662983092580474  0.7621406318024619
  0.6220190282835757  0.3662983092580471  0.2621406318024633
  0.3779809717164247  0.6337016907419526  0.7621406318024619
  0.8342354127482811  0.0458766322680923  0.2620828771179915
  0.1657645872517214  0.9541233487319003  0.7620828471179953
  0.3342354127482781  0.4541233787319039  0.2620828771179915
  0.6657645872517189  0.5458766512680997  0.7620828471179953
  0.5210011196928092  0.8206412917531757  0.2619765080795506
  0.4789988803071892  0.1793587082468219  0.7619765080795505
  0.0210011196928099  0.6793587082468243  0.2619765080795506
  0.9789988803071908  0.3206412917531792  0.7619765080795505

  0.00000000E+00  0.00000000E+00  0.00000000E+00
  0.00000000E+00  0.00000000E+00  0.00000000E+00
  0.00000000E+00  0.00000000E+00  0.00000000E+00
  0.00000000E+00  0.00000000E+00  0.00000000E+00
  0.00000000E+00  0.00000000E+00  0.00000000E+00
  0.00000000E+00  0.00000000E+00  0.00000000E+00
  0.00000000E+00  0.00000000E+00  0.00000000E+00
  0.00000000E+00  0.00000000E+00  0.00000000E+00
  0.00000000E+00  0.00000000E+00  0.00000000E+00
  0.00000000E+00  0.00000000E+00  0.00000000E+00
  0.00000000E+00  0.00000000E+00  0.00000000E+00
  0.00000000E+00  0.00000000E+00  0.00000000E+00
