Mn2 Co2 Br8                             
   1.00000000000000     
     6.3126998505169967    0.8014555724319100   -2.1865279798438912
    -0.6275860968983016    7.5538565728344818   -2.1100375653357619
     0.5421355861450098    0.0168141443609576    6.7774586101815339
   Mn   Co   Br
     2     2     8
Direct
  0.7633779964813030  0.8666406993743578  0.5201221874386874
  0.2366220035186970  0.1333593006256422  0.4798778125613126
  0.5000000000000000  0.0000000000000000  0.0000000000000000
  0.0000000000000000  0.5000000000000000  0.0000000000000000
  0.8349830004101122  0.5504490652622493  0.2772216502890501
  0.6155810580890630  0.1578348466573871  0.7617701317015317
  0.1650169995898878  0.4495509347377507  0.7227783497109499
  0.1693939450546083  0.9318389823518274  0.7092615202482833
  0.3844189419109370  0.8421651533426129  0.2382298682984754
  0.2993802875504343  0.2864730051305955  0.1942553344028397
  0.8306060549453917  0.0681610176481726  0.2907384797517167
  0.7006197124495657  0.7135269948694045  0.8057446655971603
 
  0.00000000E+00  0.00000000E+00  0.00000000E+00
  0.00000000E+00  0.00000000E+00  0.00000000E+00
  0.00000000E+00  0.00000000E+00  0.00000000E+00
  0.00000000E+00  0.00000000E+00  0.00000000E+00
  0.00000000E+00  0.00000000E+00  0.00000000E+00
  0.00000000E+00  0.00000000E+00  0.00000000E+00
  0.00000000E+00  0.00000000E+00  0.00000000E+00
  0.00000000E+00  0.00000000E+00  0.00000000E+00
  0.00000000E+00  0.00000000E+00  0.00000000E+00
  0.00000000E+00  0.00000000E+00  0.00000000E+00
  0.00000000E+00  0.00000000E+00  0.00000000E+00
  0.00000000E+00  0.00000000E+00  0.00000000E+00
