Mn2 Cd2 Br8                             
   1.00000000000000     
     7.7639373226997881    0.4858511363486072   -2.0832933883352016
    -2.0142155819141472    5.6477089010307697   -3.5129089465183214
     1.0879889892484529   -0.7096269489771092    8.4860736838624575
   Mn   Cd   Br
     2     2     8
Direct
  0.5000000000000000  0.0000000000000000  0.0000000000000000
  0.0000000000000000  0.5000000000000000  0.0000000000000000
  0.8566350379782790  0.7589372226233380  0.5208496409112868
  0.1433649620217210  0.2410627773766691  0.4791503590887132
  0.0697680923457469  0.4648289689417169  0.2912104862505700
  0.7059490097296646  0.1089012636229967  0.8068912102405079
  0.9302319076542531  0.5351710310582831  0.7087895137494300
  0.1614526397640788  0.1405617661278313  0.7680050933366545
  0.2940509902703354  0.8910987363770033  0.1931087897594921
  0.5399867852498161  0.4426854736419159  0.2701909383182297
  0.8385473602359212  0.8594382338721687  0.2319949066633455
  0.4600132147501839  0.5573145263580841  0.7298090616817632
 
  0.00000000E+00  0.00000000E+00  0.00000000E+00
  0.00000000E+00  0.00000000E+00  0.00000000E+00
  0.00000000E+00  0.00000000E+00  0.00000000E+00
  0.00000000E+00  0.00000000E+00  0.00000000E+00
  0.00000000E+00  0.00000000E+00  0.00000000E+00
  0.00000000E+00  0.00000000E+00  0.00000000E+00
  0.00000000E+00  0.00000000E+00  0.00000000E+00
  0.00000000E+00  0.00000000E+00  0.00000000E+00
  0.00000000E+00  0.00000000E+00  0.00000000E+00
  0.00000000E+00  0.00000000E+00  0.00000000E+00
  0.00000000E+00  0.00000000E+00  0.00000000E+00
  0.00000000E+00  0.00000000E+00  0.00000000E+00
