Zn2 Co2 Br8                             
   1.00000000000000     
     6.2581520564341639   -2.4488872287757264   -8.8031351261916200
    -1.2407544620205091    6.0034993610856020   -2.6398191118931171
    -3.0479291171155021    3.3605757193974495   17.2087134477269892
   Zn   Co   Br
     2     2     8
Direct
  0.7486842896955642  0.7504149011652869  0.5004057325566028
  0.2513157103044358  0.2495850988347202  0.4995942674433972
  0.5000000000000000  0.0000000000000000  0.0000000000000000
 -0.0000000000000000  0.5000000000000000  0.0000000000000000
  0.9575096452478854  0.3057009031662710  0.2313741274169322
  0.7294835991317783  0.1893210390761539  0.7417475440838017
  0.0424903547521217  0.6942990968337291  0.7686258725830749
  0.1945207290691648  0.0556404264738444  0.7254428987521614
  0.2705164008682145  0.8106789609238462  0.2582524559162054
  0.4871541124093973  0.4410062401184648  0.2486726507911964
  0.8054792709308353  0.9443595735261556  0.2745571012478457
  0.5128458875906027  0.5589937598815352  0.7513273492088035
 
  0.00000000E+00  0.00000000E+00  0.00000000E+00
  0.00000000E+00  0.00000000E+00  0.00000000E+00
  0.00000000E+00  0.00000000E+00  0.00000000E+00
  0.00000000E+00  0.00000000E+00  0.00000000E+00
  0.00000000E+00  0.00000000E+00  0.00000000E+00
  0.00000000E+00  0.00000000E+00  0.00000000E+00
  0.00000000E+00  0.00000000E+00  0.00000000E+00
  0.00000000E+00  0.00000000E+00  0.00000000E+00
  0.00000000E+00  0.00000000E+00  0.00000000E+00
  0.00000000E+00  0.00000000E+00  0.00000000E+00
  0.00000000E+00  0.00000000E+00  0.00000000E+00
  0.00000000E+00  0.00000000E+00  0.00000000E+00
