primitive_CONTCAR
1.0
       10.8753995895         0.0000000000         0.0000000000
        0.0000000000        10.8753995895         0.0000000000
        0.0000000000         0.0000000000        10.8566999435
    S   Cu   Zn   Sn
   32   16    8    8
Direct
     0.379350007         0.127370000         0.877870023
     0.129350007         0.377370000         0.377869993
     0.120650001         0.372630000         0.877870023
     0.370649993         0.122630000         0.377869993
     0.127370000         0.120650001         0.122129999
     0.377370000         0.370649993         0.622129977
     0.372630000         0.379350007         0.122129999
     0.122630000         0.129350007         0.622129977
     0.879350007         0.127370000         0.877870023
     0.629350007         0.377370000         0.377869993
     0.620649993         0.372630000         0.877870023
     0.870649993         0.122630000         0.377869993
     0.627370000         0.120650001         0.122129999
     0.877370000         0.370649993         0.622129977
     0.872630000         0.379350007         0.122129999
     0.622630000         0.129350007         0.622129977
     0.379350007         0.627370000         0.877870023
     0.129350007         0.877370000         0.377869993
     0.120650001         0.872630000         0.877870023
     0.370649993         0.622630000         0.377869993
     0.127370000         0.620649993         0.122129999
     0.377370000         0.870649993         0.622129977
     0.372630000         0.879350007         0.122129999
     0.122630000         0.629350007         0.622129977
     0.879350007         0.627370000         0.877870023
     0.629350007         0.877370000         0.377869993
     0.620649993         0.872630000         0.877870023
     0.870649993         0.622630000         0.377869993
     0.627370000         0.620649993         0.122129999
     0.877370000         0.870649993         0.622129977
     0.872630000         0.879350007         0.122129999
     0.622630000         0.629350007         0.622129977
     0.000000000         0.000000000         0.000000000
     0.250000000         0.250000000         0.500000000
     0.000000000         0.250000000         0.750000000
     0.250000000         0.000000000         0.250000000
     0.500000000         0.000000000         0.000000000
     0.750000000         0.250000000         0.500000000
     0.500000000         0.250000000         0.750000000
     0.750000000         0.000000000         0.250000000
     0.000000000         0.500000000         0.000000000
     0.250000000         0.750000000         0.500000000
     0.000000000         0.750000000         0.750000000
     0.250000000         0.500000000         0.250000000
     0.500000000         0.500000000         0.000000000
     0.750000000         0.750000000         0.500000000
     0.500000000         0.750000000         0.750000000
     0.750000000         0.500000000         0.250000000
     0.250000000         0.250000000         0.000000000
     0.000000000         0.000000000         0.500000000
     0.750000000         0.250000000         0.000000000
     0.500000000         0.000000000         0.500000000
     0.250000000         0.750000000         0.000000000
     0.000000000         0.500000000         0.500000000
     0.750000000         0.750000000         0.000000000
     0.500000000         0.500000000         0.500000000
     0.250000000         0.000000000         0.750000000
     0.000000000         0.250000000         0.250000000
     0.750000000         0.000000000         0.750000000
     0.500000000         0.250000000         0.250000000
     0.250000000         0.500000000         0.750000000
     0.000000000         0.750000000         0.250000000
     0.750000000         0.500000000         0.750000000
     0.500000000         0.750000000         0.250000000
