Y4 Co2 I16                              
   1.00000000000000     
     7.1839061669807256    0.0000000000000000    0.0000000000000000
     0.0000000000000000   11.0639797770312533    0.0000000000000000
     0.0000000000000000    0.0000000000000000   14.8715188610716833
   Y    Co   I 
     4     2    16
Direct
  0.6140311735720887  0.0080464273794942  0.1787678744165697
  0.3859688264279109  0.0080464273794942  0.8212321255834302
  0.8859688264279113  0.5080464273794941  0.6787678744165698
  0.1140311735720890  0.5080464273794941  0.3212321255834303
  0.0000000000000000  0.0079337275375924  0.0000000000000000
  0.5000000000000000  0.5079337275375927  0.5000000000000000
  0.2922266373408114  0.5096781154227723  0.6672796580526852
  0.7793329678901284  0.8177031140055427  0.0706859023684104
  0.7131681659558302  0.0094113388281315  0.3621876251729370
  0.2203810108974383  0.1981941405952564  0.9293325300935787
  0.7868318340441698  0.5094113388281383  0.8621876251729369
  0.7796189891025547  0.1981941405952564  0.0706674699064212
  0.2131681659558304  0.5094113388281383  0.1378123748270632
  0.2077733626591886  0.0096781154227725  0.1672796580526851
  0.7203810108974453  0.6981941405952564  0.5706674699064213
  0.2796189891025617  0.6981941405952564  0.4293325300935787
  0.2206670321098715  0.8177031140055427  0.9293140976315896
  0.7077733626591886  0.5096781154227723  0.3327203419473149
  0.2868318340441695  0.0094113388281315  0.6378123748270631
  0.7922266373408114  0.0096781154227725  0.8327203419473148
  0.2793329678901285  0.3177031140055428  0.4293140976315896
  0.7206670321098716  0.3177031140055428  0.5706859023684104
 
  0.00000000E+00  0.00000000E+00  0.00000000E+00
  0.00000000E+00  0.00000000E+00  0.00000000E+00
  0.00000000E+00  0.00000000E+00  0.00000000E+00
  0.00000000E+00  0.00000000E+00  0.00000000E+00
  0.00000000E+00  0.00000000E+00  0.00000000E+00
  0.00000000E+00  0.00000000E+00  0.00000000E+00
  0.00000000E+00  0.00000000E+00  0.00000000E+00
  0.00000000E+00  0.00000000E+00  0.00000000E+00
  0.00000000E+00  0.00000000E+00  0.00000000E+00
  0.00000000E+00  0.00000000E+00  0.00000000E+00
  0.00000000E+00  0.00000000E+00  0.00000000E+00
  0.00000000E+00  0.00000000E+00  0.00000000E+00
  0.00000000E+00  0.00000000E+00  0.00000000E+00
  0.00000000E+00  0.00000000E+00  0.00000000E+00
  0.00000000E+00  0.00000000E+00  0.00000000E+00
  0.00000000E+00  0.00000000E+00  0.00000000E+00
  0.00000000E+00  0.00000000E+00  0.00000000E+00
  0.00000000E+00  0.00000000E+00  0.00000000E+00
  0.00000000E+00  0.00000000E+00  0.00000000E+00
  0.00000000E+00  0.00000000E+00  0.00000000E+00
  0.00000000E+00  0.00000000E+00  0.00000000E+00
  0.00000000E+00  0.00000000E+00  0.00000000E+00
