Bi2WO6
   1.00000000000000     
     5.4357297612409807    0.0000000000000000    0.0000000000000000
     0.0000000000000000    5.4392246100943824    0.0000000000000000
     0.0000000000000000    0.0000000000000000   16.5420022656893231
   Bi   W    O 
     8     4    24
Direct
  0.9725502494378744  0.5215370875502073  0.4226815079656452
  0.4725501624378706  0.4784629124498000  0.5773185500343530
  0.9725502494378744  0.0215370765502098  0.5773185500343530
  0.4725501624378706  0.9784629124497927  0.4226815079656452
  0.9862092255061473  0.4791359542580916  0.0772397271634736
  0.4862091815061367  0.5208640457419155  0.9227602658365294
  0.9862092255061473  0.9791359102580880  0.9227602658365294
  0.4862091815061367  0.0208640537419090  0.0772397271634736
  0.0048244321173266  0.0047081530026086  0.2497433678789116
  0.5048244321173194  0.9952918899973845  0.7502566321210671
  0.0048244321173266  0.5047081540026120  0.7502566321210671
  0.5048244321173194  0.4952918459973948  0.2497433678789116
  0.0797945825888281  0.0687085953226364  0.1407572789988261
  0.5797945765888275  0.9312913886773551  0.8592427360011645
  0.0797945825888281  0.5687086113226449  0.8592427360011645
  0.5797945765888275  0.4312913886773549  0.1407572789988261
  0.2614645204416220  0.2584652063181976  0.9986863485047517
  0.7614645424416241  0.7415347716818008  0.0013136884952478
  0.2614645204416220  0.7584651843182026  0.0013136884952478
  0.7614645424416241  0.2415347936818024  0.9986863485047517
  0.2475321671039543  0.2410891847565318  0.4988737566551293
  0.7475322111039505  0.7589108592434718  0.5011262433448708
  0.2475321671039543  0.7410891847565247  0.5011262433448708
  0.7475322111039505  0.2589108372434700  0.4988737566551293
  0.2544193925116219  0.7087997202520347  0.2312653008562317
  0.7544193265116236  0.2912002797479723  0.7687346551437717
  0.2544193925116219  0.2087996762520240  0.7687346551437717
  0.7544193265116236  0.7912002797479653  0.2312653008562317
  0.3256269396204318  0.2177346758472045  0.2684157041706342
  0.8256270046204265  0.7822653461527971  0.7315842958293653
  0.3256269396204318  0.7177346538472029  0.7315842958293653
  0.8256270046204265  0.2822653241527954  0.2684157041706342
  0.5644285426721813  0.5749049081419882  0.3584702414187815
  0.0644286246721810  0.4250950918580043  0.6415297295812126
  0.5644285426721813  0.0749048371419932  0.6415297295812126
  0.0644286246721810  0.9250950918580118  0.3584702414187815
 
  0.00000000E+00  0.00000000E+00  0.00000000E+00
  0.00000000E+00  0.00000000E+00  0.00000000E+00
  0.00000000E+00  0.00000000E+00  0.00000000E+00
  0.00000000E+00  0.00000000E+00  0.00000000E+00
  0.00000000E+00  0.00000000E+00  0.00000000E+00
  0.00000000E+00  0.00000000E+00  0.00000000E+00
  0.00000000E+00  0.00000000E+00  0.00000000E+00
  0.00000000E+00  0.00000000E+00  0.00000000E+00
  0.00000000E+00  0.00000000E+00  0.00000000E+00
  0.00000000E+00  0.00000000E+00  0.00000000E+00
  0.00000000E+00  0.00000000E+00  0.00000000E+00
  0.00000000E+00  0.00000000E+00  0.00000000E+00
  0.00000000E+00  0.00000000E+00  0.00000000E+00
  0.00000000E+00  0.00000000E+00  0.00000000E+00
  0.00000000E+00  0.00000000E+00  0.00000000E+00
  0.00000000E+00  0.00000000E+00  0.00000000E+00
  0.00000000E+00  0.00000000E+00  0.00000000E+00
  0.00000000E+00  0.00000000E+00  0.00000000E+00
  0.00000000E+00  0.00000000E+00  0.00000000E+00
  0.00000000E+00  0.00000000E+00  0.00000000E+00
  0.00000000E+00  0.00000000E+00  0.00000000E+00
  0.00000000E+00  0.00000000E+00  0.00000000E+00
  0.00000000E+00  0.00000000E+00  0.00000000E+00
  0.00000000E+00  0.00000000E+00  0.00000000E+00
  0.00000000E+00  0.00000000E+00  0.00000000E+00
  0.00000000E+00  0.00000000E+00  0.00000000E+00
  0.00000000E+00  0.00000000E+00  0.00000000E+00
  0.00000000E+00  0.00000000E+00  0.00000000E+00
  0.00000000E+00  0.00000000E+00  0.00000000E+00
  0.00000000E+00  0.00000000E+00  0.00000000E+00
  0.00000000E+00  0.00000000E+00  0.00000000E+00
  0.00000000E+00  0.00000000E+00  0.00000000E+00
  0.00000000E+00  0.00000000E+00  0.00000000E+00
  0.00000000E+00  0.00000000E+00  0.00000000E+00
  0.00000000E+00  0.00000000E+00  0.00000000E+00
  0.00000000E+00  0.00000000E+00  0.00000000E+00
