Y2 Zr2 F14                              
   1.00000000000000     
     5.8443308189758447    0.0000024046519608   -0.0000096736569569
     0.0000046770525624    5.9127129181256866   -1.3979857537925275
    -0.0000137284670777   -0.0146332556713686    8.3155404179768411
   Y    Zr   F 
     2     2    14
Direct
  0.7551877525305386  0.8492391957768888  0.8118447622039895
  0.2551881095717903  0.1507599479682753  0.1881548915687716
  0.7576961681852339  0.6815927975169842  0.2743742436289054
  0.2576961849930441  0.3184068841004120  0.7256243675673062
  0.4909965322973164  0.9863109689084553  0.9944529845075678
  0.9909958270196242  0.0136889814517076  0.0055473155322545
  0.4968237741594947  0.5665192280436386  0.7407096178062460
  0.9968225224844431  0.4334793957773826  0.2592892627225893
  0.7566119405715952  0.7299532341477644  0.5234829608854028
  0.2566117150782290  0.2700464684506727  0.4765158385603812
  0.0237640186655952  0.5727451968636075  0.7448922926227866
  0.5237645529957504  0.4272550928452858  0.2551085809283080
  0.5157375171448066  0.0900524364189152  0.7072945329183540
  0.0157387805994702  0.9099446942062102  0.2927079445272511
  0.5055249953014282  0.9152461212531335  0.2928263126281010
  0.0055231565031519  0.0847588872456910  0.7071745680979475
  0.7595585385530939  0.6364559378517214  0.0266928782595457
  0.2595579133453612  0.3635445311732468  0.9733056450342943
 
  0.00000000E+00  0.00000000E+00  0.00000000E+00
  0.00000000E+00  0.00000000E+00  0.00000000E+00
  0.00000000E+00  0.00000000E+00  0.00000000E+00
  0.00000000E+00  0.00000000E+00  0.00000000E+00
  0.00000000E+00  0.00000000E+00  0.00000000E+00
  0.00000000E+00  0.00000000E+00  0.00000000E+00
  0.00000000E+00  0.00000000E+00  0.00000000E+00
  0.00000000E+00  0.00000000E+00  0.00000000E+00
  0.00000000E+00  0.00000000E+00  0.00000000E+00
  0.00000000E+00  0.00000000E+00  0.00000000E+00
  0.00000000E+00  0.00000000E+00  0.00000000E+00
  0.00000000E+00  0.00000000E+00  0.00000000E+00
  0.00000000E+00  0.00000000E+00  0.00000000E+00
  0.00000000E+00  0.00000000E+00  0.00000000E+00
  0.00000000E+00  0.00000000E+00  0.00000000E+00
  0.00000000E+00  0.00000000E+00  0.00000000E+00
  0.00000000E+00  0.00000000E+00  0.00000000E+00
  0.00000000E+00  0.00000000E+00  0.00000000E+00
