Mn2 Ru4 Br16                            
   1.00000000000000     
     7.0272174620840602    0.0000000000000000    0.0000000000000000
     0.0000000000000000   15.0202288141820102    0.0000000000000000
     0.0000000000000000    0.0000000000000000    8.0408401340213622
   Mn   Ru   Br
     2     4    16
Direct
 -0.0000000000000000  0.0508468615508937 -0.0000000000000000
  0.5000000000000000  0.5508468615508937  0.5000000000000000
  0.5261392980394957  0.0034511384889462  0.1340512789153861
  0.4738607019605044  0.0034511384889462  0.8659487210846140
  0.9738607019605043  0.5034511384889463  0.6340512789153860
  0.0261392980394956  0.5034511384889463  0.3659487210846140
  0.2518066741883757  0.5909612943082281  0.7383428743304822
  0.8228339793307152  0.9177567697077456  0.1571938520313991
  0.3697756887119224  0.8732723529429759  0.2470516263382790
  0.2744237264598897  0.1361350137766405  0.8128649786918241
  0.1302243112880776  0.3732723529429758  0.7470516263382790
  0.7255762735401106  0.1361350137766405  0.1871350213081688
  0.8697756887119223  0.3732723529429758  0.2529483736617210
  0.2481933258116243  0.0909612943082281  0.2383428743304822
  0.7744237264598894  0.6361350137766477  0.6871350213081759
  0.2255762735401105  0.6361350137766477  0.3128649786918312
  0.1771660206692847  0.9177567697077456  0.8428061479686010
  0.7481933258116243  0.5909612943082281  0.2616571256695178
  0.6302243112880777  0.8732723529429759  0.7529483736617210
  0.7518066741883757  0.0909612943082281  0.7616571256695178
  0.3228339793307154  0.4177567697077455  0.3428061479686009
  0.6771660206692848  0.4177567697077455  0.6571938520313990
 
  0.00000000E+00  0.00000000E+00  0.00000000E+00
  0.00000000E+00  0.00000000E+00  0.00000000E+00
  0.00000000E+00  0.00000000E+00  0.00000000E+00
  0.00000000E+00  0.00000000E+00  0.00000000E+00
  0.00000000E+00  0.00000000E+00  0.00000000E+00
  0.00000000E+00  0.00000000E+00  0.00000000E+00
  0.00000000E+00  0.00000000E+00  0.00000000E+00
  0.00000000E+00  0.00000000E+00  0.00000000E+00
  0.00000000E+00  0.00000000E+00  0.00000000E+00
  0.00000000E+00  0.00000000E+00  0.00000000E+00
  0.00000000E+00  0.00000000E+00  0.00000000E+00
  0.00000000E+00  0.00000000E+00  0.00000000E+00
  0.00000000E+00  0.00000000E+00  0.00000000E+00
  0.00000000E+00  0.00000000E+00  0.00000000E+00
  0.00000000E+00  0.00000000E+00  0.00000000E+00
  0.00000000E+00  0.00000000E+00  0.00000000E+00
  0.00000000E+00  0.00000000E+00  0.00000000E+00
  0.00000000E+00  0.00000000E+00  0.00000000E+00
  0.00000000E+00  0.00000000E+00  0.00000000E+00
  0.00000000E+00  0.00000000E+00  0.00000000E+00
  0.00000000E+00  0.00000000E+00  0.00000000E+00
  0.00000000E+00  0.00000000E+00  0.00000000E+00
